============================[ Problem Statistics ]=============================|                                                                             ||  Number of variables:          4242                                         ||  Number of clauses:            9822                                         ||  Parse time:                   0.23 s                                       ||                                                                             |============================[ Search Statistics ]==============================| Conflicts |          ORIGINAL         |          LEARNT          | Progress ||           |    Vars  Clauses Literals |    Limit  Clauses Lit/Cl |          |===============================================================================|       100 |    1591     6027   336358 |     2209      100     53 | 62.501 % |===============================================================================restarts              : 2conflicts             : 132            (349 /sec)decisions             : 302            (0.00 % random) (799 /sec)propagations          : 9917           (26235 /sec)conflict literals     : 8105           (95.57 % deleted)CPU time              : 0.378 sSATISFIABLE